NAME: PointSet_Angle_15_8
TYPE: TSP
COMMENT: Points chosen discrete uniformly at random out of ${0, \ldots, 500}^2$.
DIMENSION: 15
EDGE_WEIGHT_TYPE: EUC_2D
NODE_COORD_SECTION
1 342 103
2 193 379
3 118 162
4 92 118
5 50 245
6 138 357
7 257 43
8 318 275
9 223 60
10 293 16
11 162 225
12 79 156
13 211 71
14 282 322
15 275 475
EOF
